121
0 117 47 84 70 119 68 88 51 118 
9 7 53 74 90 48 103 108 73 106 
77 40 52 11 109 92 113 6 25 45 
89 4 8 57 79 80 105 29 110 75 
66 42 31 27 96 32 19 36 43 12 
13 112 58 39 114 35 61 14 16 28 
69 94 3 21 59 54 82 107 86 38 
63 87 97 99 76 5 91 104 115 50 
37 67 2 44 56 34 20 85 72 120 
78 64 30 62 81 60 83 111 24 15 
95 26 18 46 41 116 33 10 1 65 
71 17 101 22 55 49 102 100 98 23 
93 
